# 
# This is the geometry file that corresponds to the current relaxation step.
# If you do not want this file to be written, set the "write_restart_geometry" flag to .false.
# 
  set_vacuum_level        45.000000
lattice_vector     15.41925365      0.00000000      0.00000000
lattice_vector      7.70962683     13.35346537      0.00000000
lattice_vector      0.00000000      0.00000000     70.00000000
atom   -8.99456471985   -5.19309334955   -2.06595524045   Cu
  constrain_relaxation .true.
atom   -6.42468910985   -5.19309334955   -2.06595524045   Cu
  constrain_relaxation .true.
atom   -3.85481349985   -5.19309334955   -2.06595524045   Cu
  constrain_relaxation .true.
atom   -1.28493788985   -5.19309334955   -2.06595524045   Cu
  constrain_relaxation .true.
atom   1.28493772015   -5.19309334955   -2.06595524045   Cu
  constrain_relaxation .true.
atom   3.85481333015   -5.19309334955   -2.06595524045   Cu
  constrain_relaxation .true.
atom   -7.70962690985   -2.96751578955   -2.06595524045   Cu
  constrain_relaxation .true.
atom   -5.13975129985   -2.96751578955   -2.06595524045   Cu
  constrain_relaxation .true.
atom   -2.56987568985   -2.96751578955   -2.06595524045   Cu
  constrain_relaxation .true.
atom   -6.08337777097e-08   -2.96751580833   -2.06595526625   Cu
  constrain_relaxation .true.
atom   2.56987553015   -2.96751578955   -2.06595524045   Cu
  constrain_relaxation .true.
atom   5.13975113015   -2.96751578955   -2.06595524045   Cu
  constrain_relaxation .true.
atom   -6.42468910985   -0.741938229542   -2.06595524045   Cu
  constrain_relaxation .true.
atom   -3.85481349985   -0.741938229542   -2.06595524045   Cu
  constrain_relaxation .true.
atom   -1.28493788985   -0.741938229542   -2.06595524045   Cu
  constrain_relaxation .true.
atom   1.28493772015   -0.741938229542   -2.06595524045   Cu
  constrain_relaxation .true.
atom   3.85481333015   -0.741938229542   -2.06595524045   Cu
  constrain_relaxation .true.
atom   6.42468894015   -0.741938229542   -2.06595524045   Cu
  constrain_relaxation .true.
atom   -5.13975129985   1.48363933045   -2.06595524045   Cu
  constrain_relaxation .true.
atom   -2.56987568985   1.48363933045   -2.06595524045   Cu
  constrain_relaxation .true.
atom   -6.08337777097e-08   1.48363931167   -2.06595526625   Cu
  constrain_relaxation .true.
atom   2.56987553015   1.48363933045   -2.06595524045   Cu
  constrain_relaxation .true.
atom   5.13975113015   1.48363933045   -2.06595524045   Cu
  constrain_relaxation .true.
atom   7.70962674015   1.48363933045   -2.06595524045   Cu
  constrain_relaxation .true.
atom   -3.85481349985   3.70921690045   -2.06595524045   Cu
  constrain_relaxation .true.
atom   -1.28493788985   3.70921690045   -2.06595524045   Cu
  constrain_relaxation .true.
atom   1.28493772015   3.70921690045   -2.06595524045   Cu
  constrain_relaxation .true.
atom   3.85481333015   3.70921690045   -2.06595524045   Cu
  constrain_relaxation .true.
atom   6.42468894015   3.70921690045   -2.06595524045   Cu
  constrain_relaxation .true.
atom   8.99456455015   3.70921690045   -2.06595524045   Cu
  constrain_relaxation .true.
atom   -2.56987568985   5.93479446045   -2.06595524045   Cu
  constrain_relaxation .true.
atom   -6.08337777097e-08   5.93479444167   -2.06595526625   Cu
  constrain_relaxation .true.
atom   2.56987553015   5.93479446045   -2.06595524045   Cu
  constrain_relaxation .true.
atom   5.13975113015   5.93479446045   -2.06595524045   Cu
  constrain_relaxation .true.
atom   7.70962674015   5.93479446045   -2.06595524045   Cu
  constrain_relaxation .true.
atom   10.2795023501   5.93479446045   -2.06595524045   Cu
  constrain_relaxation .true.
atom   -10.0653458469   -4.82210688306   -6.37129623726e-07   Cu
atom   -7.49546977685   -4.82210689306   -5.97129622193e-07   Cu
atom   -4.92559388685   -4.82210664306   -9.71296234553e-08   Cu
atom   -2.35571883685   -4.82210636306   -4.17129623287e-07   Cu
atom   0.214155913148   -4.82210671306   -9.17129623801e-07   Cu
atom   2.78403134315   -4.82210657306   -7.57129622997e-07   Cu
atom   -8.78040809685   -2.59652940306   -1.87129623797e-07   Cu
atom   -6.21053161685   -2.59652953306   -4.07129622459e-07   Cu
atom   -3.64065576685   -2.59652913306   -1.97129622848e-07   Cu
atom   -1.07078104685   -2.59652914306   -2.57129622483e-07   Cu
atom   1.49909360315   -2.59652926306   -8.77129622268e-07   Cu
atom   4.06896908315   -2.59652919306   -2.27129623553e-07   Cu
atom   -7.49547004685   -0.370952093056   -6.0712962302e-07   Cu
atom   -4.92559396685   -0.370951933056   -7.57129622997e-07   Cu
atom   -2.35571841685   -0.370951593056   -3.27129622946e-07   Cu
atom   0.214156273148   -0.370951643056   -5.87129623142e-07   Cu
atom   2.78403087315   -0.370952003056   -6.27129622899e-07   Cu
atom   5.35390667315   -0.370951763056   -6.71296227495e-08   Cu
atom   -6.21053258685   1.85462610694   -1.87129623797e-07   Cu
atom   -3.64065662685   1.85462637694   -8.97129622146e-07   Cu
atom   -1.07078093685   1.85462625694   -4.07129622459e-07   Cu
atom   1.49909386315   1.85462604694   3.28703766428e-08   Cu
atom   4.06896854315   1.85462572694   -3.27129622946e-07   Cu
atom   6.63884443315   1.85462623694   -3.67129622703e-07   Cu
atom   -4.92559479685   4.08020363694   -2.17129622726e-07   Cu
atom   -2.35571877685   4.08020368694   -7.57129622997e-07   Cu
atom   0.214156883148   4.08020350694   -2.37129622604e-07   Cu
atom   2.78403195315   4.08020345694   1.82870376619e-07   Cu
atom   5.35390672315   4.08020341694   -6.97129623362e-07   Cu
atom   7.92378240315   4.08020373694   -1.77129622969e-07   Cu
atom   -3.64065698685   6.30578117694   -4.47129622216e-07   Cu
atom   -1.07078085685   6.30578109694   -8.57129622389e-07   Cu
atom   1.49909490315   6.30578101694   -1.67129622142e-07   Cu
atom   4.06896993315   6.30578142694   -3.27129622946e-07   Cu
atom   6.63884488315   6.30578124694   -9.17129623801e-07   Cu
atom   9.20872030315   6.30578142694   -4.57129623044e-07   Cu
atom   -10.2795019899   -5.93479483955   2.06595586955   Cu
atom   -7.70962618985   -5.93479478955   2.06595528955   Cu
atom   -5.13975057985   -5.93479428955   2.06595629955   Cu
atom   -2.56987574985   -5.93479384955   2.06595643955   Cu
atom   -1.0308337777e-06   -5.93479390833   2.06595524375   Cu
atom   2.56987560015   -5.93479448955   2.06595466955   Cu
atom   -8.99456406985   -3.70921776955   2.06595527955   Cu
atom   -6.42468800985   -3.70921742955   2.06595467955   Cu
atom   -3.85481227985   -3.70921676955   2.06595578955   Cu
atom   -1.28493762985   -3.70921652955   2.06595637955   Cu
atom   1.28493669015   -3.70921664955   2.06595434955   Cu
atom   3.85481342015   -3.70921751955   2.06595402955   Cu
atom   -7.70962595985   -1.48364023955   2.06595541955   Cu
atom   -5.13974999985   -1.48363961955   2.06595480955   Cu
atom   -2.56987454985   -1.48363917955   2.06595572955   Cu
atom   -2.30833777703e-07   -1.48363890833   2.06595598375   Cu
atom   2.56987435015   -1.48363946955   2.06595499955   Cu
atom   5.13975131015   -1.48364029955   2.06595479955   Cu
atom   -6.42468830985   0.741937890462   2.06595526955   Cu
atom   -3.85481260985   0.741938530462   2.06595466955   Cu
atom   -1.28493722985   0.741938820462   2.06595576955   Cu
atom   1.28493703015   0.741938540462   2.06595673955   Cu
atom   3.85481186015   0.741937870462   2.06595514955   Cu
atom   6.42468922015   0.741937420462   2.06595369955   Cu
atom   -5.13975070985   2.96751593045   2.06595562955   Cu
atom   -2.56987519985   2.96751612045   2.06595444955   Cu
atom   1.89166222297e-07   2.96751611167   2.06595627375   Cu
atom   2.56987473015   2.96751610045   2.06595686955   Cu
atom   5.13974970015   2.96751602045   2.06595446955   Cu
atom   7.70962663015   2.96751550045   2.06595414955   Cu
atom   -3.85481290985   5.19309365045   2.06595554955   Cu
atom   -1.28493733985   5.19309362045   2.06595484955   Cu
atom   1.28493808015   5.19309374045   2.06595621955   Cu
atom   3.85481289015   5.19309427045   2.06595615955   Cu
atom   6.42468759015   5.19309410045   2.06595420955   Cu
atom   8.99456451015   5.19309367045   2.06595424955   Cu

atom    0.3636    2.9382    5.7686   N
atom    0.1131    1.5370    5.4126   C
atom    0.6992    0.6268    6.4663   C
atom    1.9479    0.5409    6.6020   O
atom   -0.1565   -0.1266    7.3350   N
atom   -0.7429    0.4293    8.5514   C
atom    0.3199    0.7236    9.5932   C
atom    1.3598    1.3496    9.2556   O
atom    0.1761    0.3294   10.9634   N
atom   -0.8989    0.8587   11.8113   C
atom   -0.4151    2.0339   12.6244   C
atom    0.8121    2.3027   12.6982   O
atom   -1.3246    2.8390   13.3046   O
atom   -1.4897   -0.2534   12.7058   C
atom   -0.4440   -0.9946   13.5069   C
atom    0.1103   -0.4221   14.6655   C
atom    1.0984   -1.1010   15.3843   C
atom    1.5358   -2.3574   14.9573   C
atom    0.9841   -2.9369   13.8129   C
atom   -0.0039   -2.2612   13.0916   C
atom   -1.7703   -0.6202    8.9963   C
atom   -2.0919   -1.4253    7.7437   C
atom   -0.8552   -1.3100    6.8675   C
atom    0.6985    1.2248    4.0187   C
atom    0.2969   -0.1376    3.5396   C
atom   -0.9578   -0.4683    3.1724   N
atom   -0.8573   -1.7650    2.8123   C
atom    0.3941   -2.2472    2.9376   N
atom    1.1304   -1.2237    3.3942   C
atom    1.3923    3.1325    5.8069   H
atom   -0.0788    3.5685    5.0600   H
atom   -0.0613    3.1478    6.7026   H
atom   -0.9891    1.3805    5.3769   H
atom   -1.2671    1.3765    8.2980   H
atom    1.0345   -0.0355   11.4356   H
atom   -1.7209    1.2379   11.1666   H
atom   -2.3212    2.6629   13.2557   H
atom   -2.2555    0.1674   13.3944   H
atom   -2.0348   -0.9714   12.0537   H
atom   -0.2245    0.5463   15.0132   H
atom    1.5213   -0.6567   16.2747   H
atom    2.3019   -2.8803   15.5137   H
atom    1.3227   -3.9119   13.4838   H
atom   -0.4166   -2.7219   12.2028   H
atom   -1.3345   -1.3191    9.7428   H
atom   -2.6853   -0.1496    9.4182   H
atom   -2.9619   -0.9633    7.2247   H
atom   -2.3292   -2.4854    7.9831   H
atom   -1.1507   -1.2073    5.8053   H
atom   -0.2010   -2.1969    6.9910   H
atom    0.3329    1.9701    3.2803   H
atom    1.8075    1.3049    4.0478   H
atom   -1.6943   -2.3529    2.4601   H
atom    0.7220   -3.2143    2.7233   H
atom    2.1904   -1.2680    3.6094   H
