#=======================================================
#FHI-aims  file:  temp.in
#Created  using  the  Atomic  Simulation  Environment  (ASE)
#=======================================================
lattice_vector  25.6987560909926600  0.0000000000000000  0.0000000000000000  
lattice_vector  0.0000000000000000  22.2557756204597155  0.0000000000000000  
lattice_vector  0.0  0.0  50.0
atom  1.2849378045496331  0.7418591873486571  0.0000000000000000  Cu
atom  3.8548134136488992  0.7418591873486571  0.0000000000000000  Cu
atom  6.4246890227481659  0.7418591873486571  0.0000000000000000  Cu
atom  8.9945646318474317  0.7418591873486571  0.0000000000000000  Cu
atom  11.5644402409466984  0.7418591873486571  0.0000000000000000  Cu
atom  14.1343158500459651  0.7418591873486571  0.0000000000000000  Cu
atom  16.7041914591452318  0.7418591873486571  0.0000000000000000  Cu
atom  19.2740670682444986  0.7418591873486571  0.0000000000000000  Cu
atom  21.8439426773437617  0.7418591873486571  0.0000000000000000  Cu
atom  24.4138182864430284  0.7418591873486571  0.0000000000000000  Cu
atom  0.0000000000000000  2.9674367493946283  0.0000000000000000  Cu
atom  2.5698756090992663  2.9674367493946283  0.0000000000000000  Cu
atom  5.1397512181985325  2.9674367493946283  0.0000000000000000  Cu
atom  7.7096268272977984  2.9674367493946283  0.0000000000000000  Cu
atom  10.2795024363970651  2.9674367493946283  0.0000000000000000  Cu
atom  12.8493780454963318  2.9674367493946283  0.0000000000000000  Cu
atom  15.4192536545955967  2.9674367493946283  0.0000000000000000  Cu
atom  17.9891292636948634  2.9674367493946283  0.0000000000000000  Cu
atom  20.5590048727941301  2.9674367493946283  0.0000000000000000  Cu
atom  23.1288804818933968  2.9674367493946283  0.0000000000000000  Cu
atom  1.2849378045496331  5.1930143114406002  0.0000000000000000  Cu
atom  3.8548134136488992  5.1930143114406002  0.0000000000000000  Cu
atom  6.4246890227481659  5.1930143114406002  0.0000000000000000  Cu
atom  8.9945646318474317  5.1930143114406002  0.0000000000000000  Cu
atom  11.5644402409466984  5.1930143114406002  0.0000000000000000  Cu
atom  14.1343158500459651  5.1930143114406002  0.0000000000000000  Cu
atom  16.7041914591452318  5.1930143114406002  0.0000000000000000  Cu
atom  19.2740670682444986  5.1930143114406002  0.0000000000000000  Cu
atom  21.8439426773437617  5.1930143114406002  0.0000000000000000  Cu
atom  24.4138182864430284  5.1930143114406002  0.0000000000000000  Cu
atom  0.0000000000000000  7.4185918734865721  0.0000000000000000  Cu
atom  2.5698756090992663  7.4185918734865721  0.0000000000000000  Cu
atom  5.1397512181985325  7.4185918734865721  0.0000000000000000  Cu
atom  7.7096268272977984  7.4185918734865721  0.0000000000000000  Cu
atom  10.2795024363970651  7.4185918734865721  0.0000000000000000  Cu
atom  12.8493780454963318  7.4185918734865721  0.0000000000000000  Cu
atom  15.4192536545955967  7.4185918734865721  0.0000000000000000  Cu
atom  17.9891292636948634  7.4185918734865721  0.0000000000000000  Cu
atom  20.5590048727941301  7.4185918734865721  0.0000000000000000  Cu
atom  23.1288804818933968  7.4185918734865721  0.0000000000000000  Cu
atom  1.2849378045496331  9.6441694355325431  0.0000000000000000  Cu
atom  3.8548134136488992  9.6441694355325431  0.0000000000000000  Cu
atom  6.4246890227481659  9.6441694355325431  0.0000000000000000  Cu
atom  8.9945646318474317  9.6441694355325431  0.0000000000000000  Cu
atom  11.5644402409466984  9.6441694355325431  0.0000000000000000  Cu
atom  14.1343158500459651  9.6441694355325431  0.0000000000000000  Cu
atom  16.7041914591452318  9.6441694355325431  0.0000000000000000  Cu
atom  19.2740670682444986  9.6441694355325431  0.0000000000000000  Cu
atom  21.8439426773437617  9.6441694355325431  0.0000000000000000  Cu
atom  24.4138182864430284  9.6441694355325431  0.0000000000000000  Cu
atom  0.0000000000000000  11.8697469975785133  0.0000000000000000  Cu
atom  2.5698756090992663  11.8697469975785133  0.0000000000000000  Cu
atom  5.1397512181985325  11.8697469975785133  0.0000000000000000  Cu
atom  7.7096268272977984  11.8697469975785133  0.0000000000000000  Cu
atom  10.2795024363970651  11.8697469975785133  0.0000000000000000  Cu
atom  12.8493780454963318  11.8697469975785133  0.0000000000000000  Cu
atom  15.4192536545955967  11.8697469975785133  0.0000000000000000  Cu
atom  17.9891292636948634  11.8697469975785133  0.0000000000000000  Cu
atom  20.5590048727941301  11.8697469975785133  0.0000000000000000  Cu
atom  23.1288804818933968  11.8697469975785133  0.0000000000000000  Cu
atom  1.2849378045496331  14.0953245596244852  0.0000000000000000  Cu
atom  3.8548134136488992  14.0953245596244852  0.0000000000000000  Cu
atom  6.4246890227481659  14.0953245596244852  0.0000000000000000  Cu
atom  8.9945646318474317  14.0953245596244852  0.0000000000000000  Cu
atom  11.5644402409466984  14.0953245596244852  0.0000000000000000  Cu
atom  14.1343158500459651  14.0953245596244852  0.0000000000000000  Cu
atom  16.7041914591452318  14.0953245596244852  0.0000000000000000  Cu
atom  19.2740670682444986  14.0953245596244852  0.0000000000000000  Cu
atom  21.8439426773437617  14.0953245596244852  0.0000000000000000  Cu
atom  24.4138182864430284  14.0953245596244852  0.0000000000000000  Cu
atom  0.0000000000000000  16.3209021216704571  0.0000000000000000  Cu
atom  2.5698756090992663  16.3209021216704571  0.0000000000000000  Cu
atom  5.1397512181985325  16.3209021216704571  0.0000000000000000  Cu
atom  7.7096268272977984  16.3209021216704571  0.0000000000000000  Cu
atom  10.2795024363970651  16.3209021216704571  0.0000000000000000  Cu
atom  12.8493780454963318  16.3209021216704571  0.0000000000000000  Cu
atom  15.4192536545955967  16.3209021216704571  0.0000000000000000  Cu
atom  17.9891292636948634  16.3209021216704571  0.0000000000000000  Cu
atom  20.5590048727941301  16.3209021216704571  0.0000000000000000  Cu
atom  23.1288804818933968  16.3209021216704571  0.0000000000000000  Cu
atom  1.2849378045496331  18.5464796837164307  0.0000000000000000  Cu
atom  3.8548134136488992  18.5464796837164307  0.0000000000000000  Cu
atom  6.4246890227481659  18.5464796837164307  0.0000000000000000  Cu
atom  8.9945646318474317  18.5464796837164307  0.0000000000000000  Cu
atom  11.5644402409466984  18.5464796837164307  0.0000000000000000  Cu
atom  14.1343158500459651  18.5464796837164307  0.0000000000000000  Cu
atom  16.7041914591452318  18.5464796837164307  0.0000000000000000  Cu
atom  19.2740670682444986  18.5464796837164307  0.0000000000000000  Cu
atom  21.8439426773437617  18.5464796837164307  0.0000000000000000  Cu
atom  24.4138182864430284  18.5464796837164307  0.0000000000000000  Cu
atom  0.0000000000000000  20.7720572457624009  0.0000000000000000  Cu
atom  2.5698756090992663  20.7720572457624009  0.0000000000000000  Cu
atom  5.1397512181985325  20.7720572457624009  0.0000000000000000  Cu
atom  7.7096268272977984  20.7720572457624009  0.0000000000000000  Cu
atom  10.2795024363970651  20.7720572457624009  0.0000000000000000  Cu
atom  12.8493780454963318  20.7720572457624009  0.0000000000000000  Cu
atom  15.4192536545955967  20.7720572457624009  0.0000000000000000  Cu
atom  17.9891292636948634  20.7720572457624009  0.0000000000000000  Cu
atom  20.5590048727941301  20.7720572457624009  0.0000000000000000  Cu
atom  23.1288804818933968  20.7720572457624009  0.0000000000000000  Cu
atom  0.0000000000000000  1.4837183746973142  2.0982946482391078  Cu
atom  2.5698756090992663  1.4837183746973142  2.0982946482391078  Cu
atom  5.1397512181985325  1.4837183746973142  2.0982946482391078  Cu
atom  7.7096268272977984  1.4837183746973142  2.0982946482391078  Cu
atom  10.2795024363970651  1.4837183746973142  2.0982946482391078  Cu
atom  12.8493780454963318  1.4837183746973142  2.0982946482391078  Cu
atom  15.4192536545955967  1.4837183746973142  2.0982946482391078  Cu
atom  17.9891292636948634  1.4837183746973142  2.0982946482391078  Cu
atom  20.5590048727941301  1.4837183746973142  2.0982946482391078  Cu
atom  23.1288804818933968  1.4837183746973142  2.0982946482391078  Cu
atom  1.2849378045496331  3.7092959367432856  2.0982946482391078  Cu
atom  3.8548134136488992  3.7092959367432856  2.0982946482391078  Cu
atom  6.4246890227481659  3.7092959367432856  2.0982946482391078  Cu
atom  8.9945646318474317  3.7092959367432856  2.0982946482391078  Cu
atom  11.5644402409466984  3.7092959367432856  2.0982946482391078  Cu
atom  14.1343158500459651  3.7092959367432856  2.0982946482391078  Cu
atom  16.7041914591452318  3.7092959367432856  2.0982946482391078  Cu
atom  19.2740670682444986  3.7092959367432856  2.0982946482391078  Cu
atom  21.8439426773437617  3.7092959367432856  2.0982946482391078  Cu
atom  24.4138182864430284  3.7092959367432856  2.0982946482391078  Cu
atom  0.0000000000000000  5.9348734987892566  2.0982946482391078  Cu
atom  2.5698756090992663  5.9348734987892566  2.0982946482391078  Cu
atom  5.1397512181985325  5.9348734987892566  2.0982946482391078  Cu
atom  7.7096268272977984  5.9348734987892566  2.0982946482391078  Cu
atom  10.2795024363970651  5.9348734987892566  2.0982946482391078  Cu
atom  12.8493780454963318  5.9348734987892566  2.0982946482391078  Cu
atom  15.4192536545955967  5.9348734987892566  2.0982946482391078  Cu
atom  17.9891292636948634  5.9348734987892566  2.0982946482391078  Cu
atom  20.5590048727941301  5.9348734987892566  2.0982946482391078  Cu
atom  23.1288804818933968  5.9348734987892566  2.0982946482391078  Cu
atom  1.2849378045496331  8.1604510608352285  2.0982946482391078  Cu
atom  3.8548134136488992  8.1604510608352285  2.0982946482391078  Cu
atom  6.4246890227481659  8.1604510608352285  2.0982946482391078  Cu
atom  8.9945646318474317  8.1604510608352285  2.0982946482391078  Cu
atom  11.5644402409466984  8.1604510608352285  2.0982946482391078  Cu
atom  14.1343158500459651  8.1604510608352285  2.0982946482391078  Cu
atom  16.7041914591452318  8.1604510608352285  2.0982946482391078  Cu
atom  19.2740670682444986  8.1604510608352285  2.0982946482391078  Cu
atom  21.8439426773437617  8.1604510608352285  2.0982946482391078  Cu
atom  24.4138182864430284  8.1604510608352285  2.0982946482391078  Cu
atom  0.0000000000000000  10.3860286228812004  2.0982946482391078  Cu
atom  2.5698756090992663  10.3860286228812004  2.0982946482391078  Cu
atom  5.1397512181985325  10.3860286228812004  2.0982946482391078  Cu
atom  7.7096268272977984  10.3860286228812004  2.0982946482391078  Cu
atom  10.2795024363970651  10.3860286228812004  2.0982946482391078  Cu
atom  12.8493780454963318  10.3860286228812004  2.0982946482391078  Cu
atom  15.4192536545955967  10.3860286228812004  2.0982946482391078  Cu
atom  17.9891292636948634  10.3860286228812004  2.0982946482391078  Cu
atom  20.5590048727941301  10.3860286228812004  2.0982946482391078  Cu
atom  23.1288804818933968  10.3860286228812004  2.0982946482391078  Cu
atom  1.2849378045496331  12.6116061849271723  2.0982946482391078  Cu
atom  3.8548134136488992  12.6116061849271723  2.0982946482391078  Cu
atom  6.4246890227481659  12.6116061849271723  2.0982946482391078  Cu
atom  8.9945646318474317  12.6116061849271723  2.0982946482391078  Cu
atom  11.5644402409466984  12.6116061849271723  2.0982946482391078  Cu
atom  14.1343158500459651  12.6116061849271723  2.0982946482391078  Cu
atom  16.7041914591452318  12.6116061849271723  2.0982946482391078  Cu
atom  19.2740670682444986  12.6116061849271723  2.0982946482391078  Cu
atom  21.8439426773437617  12.6116061849271723  2.0982946482391078  Cu
atom  24.4138182864430284  12.6116061849271723  2.0982946482391078  Cu
atom  0.0000000000000000  14.8371837469731442  2.0982946482391078  Cu
atom  2.5698756090992663  14.8371837469731442  2.0982946482391078  Cu
atom  5.1397512181985325  14.8371837469731442  2.0982946482391078  Cu
atom  7.7096268272977984  14.8371837469731442  2.0982946482391078  Cu
atom  10.2795024363970651  14.8371837469731442  2.0982946482391078  Cu
atom  12.8493780454963318  14.8371837469731442  2.0982946482391078  Cu
atom  15.4192536545955967  14.8371837469731442  2.0982946482391078  Cu
atom  17.9891292636948634  14.8371837469731442  2.0982946482391078  Cu
atom  20.5590048727941301  14.8371837469731442  2.0982946482391078  Cu
atom  23.1288804818933968  14.8371837469731442  2.0982946482391078  Cu
atom  1.2849378045496331  17.0627613090191161  2.0982946482391078  Cu
atom  3.8548134136488992  17.0627613090191161  2.0982946482391078  Cu
atom  6.4246890227481659  17.0627613090191161  2.0982946482391078  Cu
atom  8.9945646318474317  17.0627613090191161  2.0982946482391078  Cu
atom  11.5644402409466984  17.0627613090191161  2.0982946482391078  Cu
atom  14.1343158500459651  17.0627613090191161  2.0982946482391078  Cu
atom  16.7041914591452318  17.0627613090191161  2.0982946482391078  Cu
atom  19.2740670682444986  17.0627613090191161  2.0982946482391078  Cu
atom  21.8439426773437617  17.0627613090191161  2.0982946482391078  Cu
atom  24.4138182864430284  17.0627613090191161  2.0982946482391078  Cu
atom  0.0000000000000000  19.2883388710650863  2.0982946482391078  Cu
atom  2.5698756090992663  19.2883388710650863  2.0982946482391078  Cu
atom  5.1397512181985325  19.2883388710650863  2.0982946482391078  Cu
atom  7.7096268272977984  19.2883388710650863  2.0982946482391078  Cu
atom  10.2795024363970651  19.2883388710650863  2.0982946482391078  Cu
atom  12.8493780454963318  19.2883388710650863  2.0982946482391078  Cu
atom  15.4192536545955967  19.2883388710650863  2.0982946482391078  Cu
atom  17.9891292636948634  19.2883388710650863  2.0982946482391078  Cu
atom  20.5590048727941301  19.2883388710650863  2.0982946482391078  Cu
atom  23.1288804818933968  19.2883388710650863  2.0982946482391078  Cu
atom  1.2849378045496331  21.5139164331110564  2.0982946482391078  Cu
atom  3.8548134136488992  21.5139164331110564  2.0982946482391078  Cu
atom  6.4246890227481659  21.5139164331110564  2.0982946482391078  Cu
atom  8.9945646318474317  21.5139164331110564  2.0982946482391078  Cu
atom  11.5644402409466984  21.5139164331110564  2.0982946482391078  Cu
atom  14.1343158500459651  21.5139164331110564  2.0982946482391078  Cu
atom  16.7041914591452318  21.5139164331110564  2.0982946482391078  Cu
atom  19.2740670682444986  21.5139164331110564  2.0982946482391078  Cu
atom  21.8439426773437617  21.5139164331110564  2.0982946482391078  Cu
atom  24.4138182864430284  21.5139164331110564  2.0982946482391078  Cu
atom  0.0000000000000000  0.0000000000000000  4.1965892964782157  Cu
atom  2.5698756090992663  0.0000000000000000  4.1965892964782157  Cu
atom  5.1397512181985325  0.0000000000000000  4.1965892964782157  Cu
atom  7.7096268272977984  0.0000000000000000  4.1965892964782157  Cu
atom  10.2795024363970651  0.0000000000000000  4.1965892964782157  Cu
atom  12.8493780454963318  0.0000000000000000  4.1965892964782157  Cu
atom  15.4192536545955967  0.0000000000000000  4.1965892964782157  Cu
atom  17.9891292636948634  0.0000000000000000  4.1965892964782157  Cu
atom  20.5590048727941301  0.0000000000000000  4.1965892964782157  Cu
atom  23.1288804818933968  0.0000000000000000  4.1965892964782157  Cu
atom  1.2849378045496331  2.2255775620459715  4.1965892964782157  Cu
atom  3.8548134136488992  2.2255775620459715  4.1965892964782157  Cu
atom  6.4246890227481659  2.2255775620459715  4.1965892964782157  Cu
atom  8.9945646318474317  2.2255775620459715  4.1965892964782157  Cu
atom  11.5644402409466984  2.2255775620459715  4.1965892964782157  Cu
atom  14.1343158500459651  2.2255775620459715  4.1965892964782157  Cu
atom  16.7041914591452318  2.2255775620459715  4.1965892964782157  Cu
atom  19.2740670682444986  2.2255775620459715  4.1965892964782157  Cu
atom  21.8439426773437617  2.2255775620459715  4.1965892964782157  Cu
atom  24.4138182864430284  2.2255775620459715  4.1965892964782157  Cu
atom  0.0000000000000000  4.4511551240919429  4.1965892964782157  Cu
atom  2.5698756090992663  4.4511551240919429  4.1965892964782157  Cu
atom  5.1397512181985325  4.4511551240919429  4.1965892964782157  Cu
atom  7.7096268272977984  4.4511551240919429  4.1965892964782157  Cu
atom  10.2795024363970651  4.4511551240919429  4.1965892964782157  Cu
atom  12.8493780454963318  4.4511551240919429  4.1965892964782157  Cu
atom  15.4192536545955967  4.4511551240919429  4.1965892964782157  Cu
atom  17.9891292636948634  4.4511551240919429  4.1965892964782157  Cu
atom  20.5590048727941301  4.4511551240919429  4.1965892964782157  Cu
atom  23.1288804818933968  4.4511551240919429  4.1965892964782157  Cu
atom  1.2849378045496331  6.6767326861379139  4.1965892964782157  Cu
atom  3.8548134136488992  6.6767326861379139  4.1965892964782157  Cu
atom  6.4246890227481659  6.6767326861379139  4.1965892964782157  Cu
atom  8.9945646318474317  6.6767326861379139  4.1965892964782157  Cu
atom  11.5644402409466984  6.6767326861379139  4.1965892964782157  Cu
atom  14.1343158500459651  6.6767326861379139  4.1965892964782157  Cu
atom  16.7041914591452318  6.6767326861379139  4.1965892964782157  Cu
atom  19.2740670682444986  6.6767326861379139  4.1965892964782157  Cu
atom  21.8439426773437617  6.6767326861379139  4.1965892964782157  Cu
atom  24.4138182864430284  6.6767326861379139  4.1965892964782157  Cu
atom  0.0000000000000000  8.9023102481838858  4.1965892964782157  Cu
atom  2.5698756090992663  8.9023102481838858  4.1965892964782157  Cu
atom  5.1397512181985325  8.9023102481838858  4.1965892964782157  Cu
atom  7.7096268272977984  8.9023102481838858  4.1965892964782157  Cu
atom  10.2795024363970651  8.9023102481838858  4.1965892964782157  Cu
atom  12.8493780454963318  8.9023102481838858  4.1965892964782157  Cu
atom  15.4192536545955967  8.9023102481838858  4.1965892964782157  Cu
atom  17.9891292636948634  8.9023102481838858  4.1965892964782157  Cu
atom  20.5590048727941301  8.9023102481838858  4.1965892964782157  Cu
atom  23.1288804818933968  8.9023102481838858  4.1965892964782157  Cu
atom  1.2849378045496331  11.1278878102298577  4.1965892964782157  Cu
atom  3.8548134136488992  11.1278878102298577  4.1965892964782157  Cu
atom  6.4246890227481659  11.1278878102298577  4.1965892964782157  Cu
atom  8.9945646318474317  11.1278878102298577  4.1965892964782157  Cu
atom  11.5644402409466984  11.1278878102298577  4.1965892964782157  Cu
atom  14.1343158500459651  11.1278878102298577  4.1965892964782157  Cu
atom  16.7041914591452318  11.1278878102298577  4.1965892964782157  Cu
atom  19.2740670682444986  11.1278878102298577  4.1965892964782157  Cu
atom  21.8439426773437617  11.1278878102298577  4.1965892964782157  Cu
atom  24.4138182864430284  11.1278878102298577  4.1965892964782157  Cu
atom  0.0000000000000000  13.3534653722758279  4.1965892964782157  Cu
atom  2.5698756090992663  13.3534653722758279  4.1965892964782157  Cu
atom  5.1397512181985325  13.3534653722758279  4.1965892964782157  Cu
atom  7.7096268272977984  13.3534653722758279  4.1965892964782157  Cu
atom  10.2795024363970651  13.3534653722758279  4.1965892964782157  Cu
atom  12.8493780454963318  13.3534653722758279  4.1965892964782157  Cu
atom  15.4192536545955967  13.3534653722758279  4.1965892964782157  Cu
atom  17.9891292636948634  13.3534653722758279  4.1965892964782157  Cu
atom  20.5590048727941301  13.3534653722758279  4.1965892964782157  Cu
atom  23.1288804818933968  13.3534653722758279  4.1965892964782157  Cu
atom  1.2849378045496331  15.5790429343217998  4.1965892964782157  Cu
atom  3.8548134136488992  15.5790429343217998  4.1965892964782157  Cu
atom  6.4246890227481659  15.5790429343217998  4.1965892964782157  Cu
atom  8.9945646318474317  15.5790429343217998  4.1965892964782157  Cu
atom  11.5644402409466984  15.5790429343217998  4.1965892964782157  Cu
atom  14.1343158500459651  15.5790429343217998  4.1965892964782157  Cu
atom  16.7041914591452318  15.5790429343217998  4.1965892964782157  Cu
atom  19.2740670682444986  15.5790429343217998  4.1965892964782157  Cu
atom  21.8439426773437617  15.5790429343217998  4.1965892964782157  Cu
atom  24.4138182864430284  15.5790429343217998  4.1965892964782157  Cu
atom  0.0000000000000000  17.8046204963677717  4.1965892964782157  Cu
atom  2.5698756090992663  17.8046204963677717  4.1965892964782157  Cu
atom  5.1397512181985325  17.8046204963677717  4.1965892964782157  Cu
atom  7.7096268272977984  17.8046204963677717  4.1965892964782157  Cu
atom  10.2795024363970651  17.8046204963677717  4.1965892964782157  Cu
atom  12.8493780454963318  17.8046204963677717  4.1965892964782157  Cu
atom  15.4192536545955967  17.8046204963677717  4.1965892964782157  Cu
atom  17.9891292636948634  17.8046204963677717  4.1965892964782157  Cu
atom  20.5590048727941301  17.8046204963677717  4.1965892964782157  Cu
atom  23.1288804818933968  17.8046204963677717  4.1965892964782157  Cu
atom  1.2849378045496331  20.0301980584137418  4.1965892964782157  Cu
atom  3.8548134136488992  20.0301980584137418  4.1965892964782157  Cu
atom  6.4246890227481659  20.0301980584137418  4.1965892964782157  Cu
atom  8.9945646318474317  20.0301980584137418  4.1965892964782157  Cu
atom  11.5644402409466984  20.0301980584137418  4.1965892964782157  Cu
atom  14.1343158500459651  20.0301980584137418  4.1965892964782157  Cu
atom  16.7041914591452318  20.0301980584137418  4.1965892964782157  Cu
atom  19.2740670682444986  20.0301980584137418  4.1965892964782157  Cu
atom  21.8439426773437617  20.0301980584137418  4.1965892964782157  Cu
atom  24.4138182864430284  20.0301980584137418  4.1965892964782157  Cu
atom  1.2849378045496331  0.7418591873486571  6.2948839447173235  Cu
atom  3.8548134136488992  0.7418591873486571  6.2948839447173235  Cu
atom  6.4246890227481659  0.7418591873486571  6.2948839447173235  Cu
atom  8.9945646318474317  0.7418591873486571  6.2948839447173235  Cu
atom  11.5644402409466984  0.7418591873486571  6.2948839447173235  Cu
atom  14.1343158500459651  0.7418591873486571  6.2948839447173235  Cu
atom  16.7041914591452318  0.7418591873486571  6.2948839447173235  Cu
atom  19.2740670682444986  0.7418591873486571  6.2948839447173235  Cu
atom  21.8439426773437617  0.7418591873486571  6.2948839447173235  Cu
atom  24.4138182864430284  0.7418591873486571  6.2948839447173235  Cu
atom  0.0000000000000000  2.9674367493946283  6.2948839447173235  Cu
atom  2.5698756090992663  2.9674367493946283  6.2948839447173235  Cu
atom  5.1397512181985325  2.9674367493946283  6.2948839447173235  Cu
atom  7.7096268272977984  2.9674367493946283  6.2948839447173235  Cu
atom  10.2795024363970651  2.9674367493946283  6.2948839447173235  Cu
atom  12.8493780454963318  2.9674367493946283  6.2948839447173235  Cu
atom  15.4192536545955967  2.9674367493946283  6.2948839447173235  Cu
atom  17.9891292636948634  2.9674367493946283  6.2948839447173235  Cu
atom  20.5590048727941301  2.9674367493946283  6.2948839447173235  Cu
atom  23.1288804818933968  2.9674367493946283  6.2948839447173235  Cu
atom  1.2849378045496331  5.1930143114406002  6.2948839447173235  Cu
atom  3.8548134136488992  5.1930143114406002  6.2948839447173235  Cu
atom  6.4246890227481659  5.1930143114406002  6.2948839447173235  Cu
atom  8.9945646318474317  5.1930143114406002  6.2948839447173235  Cu
atom  11.5644402409466984  5.1930143114406002  6.2948839447173235  Cu
atom  14.1343158500459651  5.1930143114406002  6.2948839447173235  Cu
atom  16.7041914591452318  5.1930143114406002  6.2948839447173235  Cu
atom  19.2740670682444986  5.1930143114406002  6.2948839447173235  Cu
atom  21.8439426773437617  5.1930143114406002  6.2948839447173235  Cu
atom  24.4138182864430284  5.1930143114406002  6.2948839447173235  Cu
atom  0.0000000000000000  7.4185918734865721  6.2948839447173235  Cu
atom  2.5698756090992663  7.4185918734865721  6.2948839447173235  Cu
atom  5.1397512181985325  7.4185918734865721  6.2948839447173235  Cu
atom  7.7096268272977984  7.4185918734865721  6.2948839447173235  Cu
atom  10.2795024363970651  7.4185918734865721  6.2948839447173235  Cu
atom  12.8493780454963318  7.4185918734865721  6.2948839447173235  Cu
atom  15.4192536545955967  7.4185918734865721  6.2948839447173235  Cu
atom  17.9891292636948634  7.4185918734865721  6.2948839447173235  Cu
atom  20.5590048727941301  7.4185918734865721  6.2948839447173235  Cu
atom  23.1288804818933968  7.4185918734865721  6.2948839447173235  Cu
atom  1.2849378045496331  9.6441694355325431  6.2948839447173235  Cu
atom  3.8548134136488992  9.6441694355325431  6.2948839447173235  Cu
atom  6.4246890227481659  9.6441694355325431  6.2948839447173235  Cu
atom  8.9945646318474317  9.6441694355325431  6.2948839447173235  Cu
atom  11.5644402409466984  9.6441694355325431  6.2948839447173235  Cu
atom  14.1343158500459651  9.6441694355325431  6.2948839447173235  Cu
atom  16.7041914591452318  9.6441694355325431  6.2948839447173235  Cu
atom  19.2740670682444986  9.6441694355325431  6.2948839447173235  Cu
atom  21.8439426773437617  9.6441694355325431  6.2948839447173235  Cu
atom  24.4138182864430284  9.6441694355325431  6.2948839447173235  Cu
atom  0.0000000000000000  11.8697469975785133  6.2948839447173235  Cu
atom  2.5698756090992663  11.8697469975785133  6.2948839447173235  Cu
atom  5.1397512181985325  11.8697469975785133  6.2948839447173235  Cu
atom  7.7096268272977984  11.8697469975785133  6.2948839447173235  Cu
atom  10.2795024363970651  11.8697469975785133  6.2948839447173235  Cu
atom  12.8493780454963318  11.8697469975785133  6.2948839447173235  Cu
atom  15.4192536545955967  11.8697469975785133  6.2948839447173235  Cu
atom  17.9891292636948634  11.8697469975785133  6.2948839447173235  Cu
atom  20.5590048727941301  11.8697469975785133  6.2948839447173235  Cu
atom  23.1288804818933968  11.8697469975785133  6.2948839447173235  Cu
atom  1.2849378045496331  14.0953245596244852  6.2948839447173235  Cu
atom  3.8548134136488992  14.0953245596244852  6.2948839447173235  Cu
atom  6.4246890227481659  14.0953245596244852  6.2948839447173235  Cu
atom  8.9945646318474317  14.0953245596244852  6.2948839447173235  Cu
atom  11.5644402409466984  14.0953245596244852  6.2948839447173235  Cu
atom  14.1343158500459651  14.0953245596244852  6.2948839447173235  Cu
atom  16.7041914591452318  14.0953245596244852  6.2948839447173235  Cu
atom  19.2740670682444986  14.0953245596244852  6.2948839447173235  Cu
atom  21.8439426773437617  14.0953245596244852  6.2948839447173235  Cu
atom  24.4138182864430284  14.0953245596244852  6.2948839447173235  Cu
atom  0.0000000000000000  16.3209021216704571  6.2948839447173235  Cu
atom  2.5698756090992663  16.3209021216704571  6.2948839447173235  Cu
atom  5.1397512181985325  16.3209021216704571  6.2948839447173235  Cu
atom  7.7096268272977984  16.3209021216704571  6.2948839447173235  Cu
atom  10.2795024363970651  16.3209021216704571  6.2948839447173235  Cu
atom  12.8493780454963318  16.3209021216704571  6.2948839447173235  Cu
atom  15.4192536545955967  16.3209021216704571  6.2948839447173235  Cu
atom  17.9891292636948634  16.3209021216704571  6.2948839447173235  Cu
atom  20.5590048727941301  16.3209021216704571  6.2948839447173235  Cu
atom  23.1288804818933968  16.3209021216704571  6.2948839447173235  Cu
atom  1.2849378045496331  18.5464796837164307  6.2948839447173235  Cu
atom  3.8548134136488992  18.5464796837164307  6.2948839447173235  Cu
atom  6.4246890227481659  18.5464796837164307  6.2948839447173235  Cu
atom  8.9945646318474317  18.5464796837164307  6.2948839447173235  Cu
atom  11.5644402409466984  18.5464796837164307  6.2948839447173235  Cu
atom  14.1343158500459651  18.5464796837164307  6.2948839447173235  Cu
atom  16.7041914591452318  18.5464796837164307  6.2948839447173235  Cu
atom  19.2740670682444986  18.5464796837164307  6.2948839447173235  Cu
atom  21.8439426773437617  18.5464796837164307  6.2948839447173235  Cu
atom  24.4138182864430284  18.5464796837164307  6.2948839447173235  Cu
atom  0.0000000000000000  20.7720572457624009  6.2948839447173235  Cu
atom  2.5698756090992663  20.7720572457624009  6.2948839447173235  Cu
atom  5.1397512181985325  20.7720572457624009  6.2948839447173235  Cu
atom  7.7096268272977984  20.7720572457624009  6.2948839447173235  Cu
atom  10.2795024363970651  20.7720572457624009  6.2948839447173235  Cu
atom  12.8493780454963318  20.7720572457624009  6.2948839447173235  Cu
atom  15.4192536545955967  20.7720572457624009  6.2948839447173235  Cu
atom  17.9891292636948634  20.7720572457624009  6.2948839447173235  Cu
atom  20.5590048727941301  20.7720572457624009  6.2948839447173235  Cu
atom  23.1288804818933968  20.7720572457624009  6.2948839447173235  Cu
atom  0.0000000000000000  1.4837183746973142  8.3931785929564313  Cu
atom  2.5698756090992663  1.4837183746973142  8.3931785929564313  Cu
atom  5.1397512181985325  1.4837183746973142  8.3931785929564313  Cu
atom  7.7096268272977984  1.4837183746973142  8.3931785929564313  Cu
atom  10.2795024363970651  1.4837183746973142  8.3931785929564313  Cu
atom  12.8493780454963318  1.4837183746973142  8.3931785929564313  Cu
atom  15.4192536545955967  1.4837183746973142  8.3931785929564313  Cu
atom  17.9891292636948634  1.4837183746973142  8.3931785929564313  Cu
atom  20.5590048727941301  1.4837183746973142  8.3931785929564313  Cu
atom  23.1288804818933968  1.4837183746973142  8.3931785929564313  Cu
atom  1.2849378045496331  3.7092959367432856  8.3931785929564313  Cu
atom  3.8548134136488992  3.7092959367432856  8.3931785929564313  Cu
atom  6.4246890227481659  3.7092959367432856  8.3931785929564313  Cu
atom  8.9945646318474317  3.7092959367432856  8.3931785929564313  Cu
atom  11.5644402409466984  3.7092959367432856  8.3931785929564313  Cu
atom  14.1343158500459651  3.7092959367432856  8.3931785929564313  Cu
atom  16.7041914591452318  3.7092959367432856  8.3931785929564313  Cu
atom  19.2740670682444986  3.7092959367432856  8.3931785929564313  Cu
atom  21.8439426773437617  3.7092959367432856  8.3931785929564313  Cu
atom  24.4138182864430284  3.7092959367432856  8.3931785929564313  Cu
atom  0.0000000000000000  5.9348734987892566  8.3931785929564313  Cu
atom  2.5698756090992663  5.9348734987892566  8.3931785929564313  Cu